1 0 
2 12 
3 24 
4 16 
5 7 
6 9 
7 20 
8 10 
9 18 
10 26 
11 17 
12 2 
13 11 
14 9 
15 12 
16 11 
17 12 
18 23 
19 7 
20 1 
21 26 
22 10 
23 9 
24 22 
25 21 
26 17 
27 2 
28 15 
29 16 
30 14 
31 23 
32 24 
33 2 
34 12 
35 18 
36 5 
37 19 
38 15 
39 8 
40 6 
41 14 
42 13 
43 5 
44 24 
45 25 
46 2 
47 8 
48 14 
49 2 
50 13 
51 10 
52 6 
53 6 
54 24 
55 21 
56 20 
57 24 
58 4 
59 19 
60 14 
61 23 
62 2 
63 16 
64 23 
65 14 
